
Gurobi 11.0.1 (win64) logging started Fri Mar  8 23:31:08 2024

Set parameter LogFile to value "res/logfile/ns1830653log.txt"
Gurobi Optimizer version 11.0.1 build v11.0.1rc0 (win64 - Windows 11.0 (22621.2))

CPU model: AMD Ryzen Threadripper PRO 5975WX 32-Cores, instruction set [SSE2|AVX|AVX2]
Thread count: 32 physical cores, 64 logical processors, using up to 10 threads

Optimize a model with 2475 rows, 1629 columns and 105660 nonzeros
Model fingerprint: 0x8c0426ac
Variable types: 171 continuous, 1458 integer (1458 binary)
Coefficient statistics:
  Matrix range     [1e+00, 2e+00]
  Objective range  [6e+01, 1e+03]
  Bounds range     [1e+00, 1e+00]
  RHS range        [1e+00, 4e+00]
Presolve removed 1155 rows and 1043 columns
Presolve time: 0.17s
Presolved: 1320 rows, 586 columns, 23989 nonzeros
Variable types: 0 continuous, 586 integer (585 binary)

Root relaxation: objective 7.297333e+03, 658 iterations, 0.04 seconds (0.05 work units)

    Nodes    |    Current Node    |     Objective Bounds      |     Work
 Expl Unexpl |  Obj  Depth IntInf | Incumbent    BestBd   Gap | It/Node Time

     0     0 7297.33333    0  180          - 7297.33333      -     -    0s
     0     0 9836.83333    0  220          - 9836.83333      -     -    0s
     0     0 10295.1667    0  200          - 10295.1667      -     -    0s
     0     0 10295.1667    0  199          - 10295.1667      -     -    0s
     0     0 11637.5000    0  181          - 11637.5000      -     -    0s
     0     0 11642.6667    0  181          - 11642.6667      -     -    0s
     0     0 11642.6667    0  181          - 11642.6667      -     -    0s
     0     0 11659.2000    0  188          - 11659.2000      -     -    0s
     0     0 11682.6061    0  187          - 11682.6061      -     -    0s
     0     0 11685.3725    0  201          - 11685.3725      -     -    0s
     0     0 11690.2745    0  212          - 11690.2745      -     -    0s
     0     0 11690.2745    0  209          - 11690.2745      -     -    0s
     0     0 11777.5000    0  196          - 11777.5000      -     -    0s
     0     0 11777.5000    0  195          - 11777.5000      -     -    0s
     0     0 11829.3333    0  203          - 11829.3333      -     -    0s
     0     0 11829.3333    0  215          - 11829.3333      -     -    0s
     0     0 11850.6667    0  213          - 11850.6667      -     -    0s
     0     0 11906.2222    0  217          - 11906.2222      -     -    0s
     0     0 11955.3333    0  189          - 11955.3333      -     -    1s
     0     0 11959.2000    0  199          - 11959.2000      -     -    1s
     0     0 11959.2000    0  215          - 11959.2000      -     -    1s
     0     0 11965.0000    0  187          - 11965.0000      -     -    1s
     0     0 12043.5000    0  200          - 12043.5000      -     -    1s
     0     0 12043.5000    0  218          - 12043.5000      -     -    1s
     0     0 12096.4000    0  214          - 12096.4000      -     -    1s
     0     0 12250.0000    0  212          - 12250.0000      -     -    1s
     0     0 12250.0000    0  145          - 12250.0000      -     -    1s
     0     0 12250.0000    0  164          - 12250.0000      -     -    1s
     0     0 12250.0000    0  164          - 12250.0000      -     -    1s
H    0     0                    34622.000000 12250.0000  64.6%     -    1s
     0     0 12250.0000    0  218 34622.0000 12250.0000  64.6%     -    1s
     0     0 12250.0000    0  217 34622.0000 12250.0000  64.6%     -    1s
     0     0 12250.0000    0  219 34622.0000 12250.0000  64.6%     -    1s
     0     0 12288.6667    0  210 34622.0000 12288.6667  64.5%     -    1s
     0     0 12288.6667    0  218 34622.0000 12288.6667  64.5%     -    1s
     0     0 12313.2222    0  208 34622.0000 12313.2222  64.4%     -    1s
     0     0 12313.2222    0  224 34622.0000 12313.2222  64.4%     -    1s
     0     0 12313.2222    0  224 34622.0000 12313.2222  64.4%     -    1s
     0     0 12313.2222    0  208 34622.0000 12313.2222  64.4%     -    1s
     0     0 12313.2222    0  205 34622.0000 12313.2222  64.4%     -    1s
     0     0 12313.2222    0  210 34622.0000 12313.2222  64.4%     -    1s
     0     0 12313.2222    0  198 34622.0000 12313.2222  64.4%     -    1s
     0     0 12313.2222    0  209 34622.0000 12313.2222  64.4%     -    1s
     0     0 12313.2222    0  209 34622.0000 12313.2222  64.4%     -    1s
     0     2 12313.2222    0  197 34622.0000 12313.2222  64.4%     -    2s
H  210   204                    22622.000000 13308.0000  41.2%   226    2s
  1364   715 18323.6250    8  164 22622.0000 15208.0000  32.8%   138    5s
* 3435   998              21    20622.000000 16869.5000  18.2%   123    7s
  5429   830     cutoff   12      20622.0000 18122.0000  12.1%   121   10s

Cutting planes:
  Gomory: 26
  Cover: 8
  Clique: 52
  MIR: 127
  StrongCG: 1
  GUB cover: 1
  Inf proof: 3
  Zero half: 73
  RLT: 7

Explored 7208 nodes (847961 simplex iterations) in 11.22 seconds (18.95 work units)
Thread count was 10 (of 64 available processors)

Solution count 3: 20622 22622 34622 

Optimal solution found (tolerance 1.00e-04)
Best objective 2.062200000000e+04, best bound 2.062200000000e+04, gap 0.0000%

User-callback calls 15761, time in user-callback 0.00 sec

Gurobi 11.0.1 (win64) logging started Sun Mar 17 07:06:03 2024

Set parameter LogFile to value "res/logfile/ns1830653log.txt"

Gurobi 11.0.1 (win64) logging started Sun Mar 17 07:06:03 2024

Set parameter LogFile to value "res/logfile/ns1830653log.txt"
Gurobi Optimizer version 11.0.1 build v11.0.1rc0 (win64 - Windows 11.0 (22621.2))

CPU model: AMD Ryzen Threadripper PRO 5975WX 32-Cores, instruction set [SSE2|AVX|AVX2]
Thread count: 32 physical cores, 64 logical processors, using up to 10 threads

Optimize a model with 2475 rows, 1629 columns and 105660 nonzeros
Model fingerprint: 0x8c0426ac
Variable types: 171 continuous, 1458 integer (1458 binary)
Coefficient statistics:
  Matrix range     [1e+00, 2e+00]
  Objective range  [6e+01, 1e+03]
  Bounds range     [1e+00, 1e+00]
  RHS range        [1e+00, 4e+00]
Presolve removed 1155 rows and 1043 columns
Presolve time: 0.16s
Presolved: 1320 rows, 586 columns, 23989 nonzeros
Variable types: 0 continuous, 586 integer (585 binary)

Root relaxation: objective 7.297333e+03, 658 iterations, 0.03 seconds (0.05 work units)

    Nodes    |    Current Node    |     Objective Bounds      |     Work
 Expl Unexpl |  Obj  Depth IntInf | Incumbent    BestBd   Gap | It/Node Time

     0     0 7297.33333    0  180          - 7297.33333      -     -    0s
     0     0 9836.83333    0  220          - 9836.83333      -     -    0s
     0     0 10295.1667    0  200          - 10295.1667      -     -    0s
     0     0 10295.1667    0  199          - 10295.1667      -     -    0s
     0     0 11637.5000    0  181          - 11637.5000      -     -    0s
     0     0 11642.6667    0  181          - 11642.6667      -     -    0s
     0     0 11642.6667    0  181          - 11642.6667      -     -    0s
     0     0 11659.2000    0  188          - 11659.2000      -     -    0s
     0     0 11682.6061    0  187          - 11682.6061      -     -    0s
     0     0 11685.3725    0  201          - 11685.3725      -     -    0s
     0     0 11690.2745    0  212          - 11690.2745      -     -    0s
     0     0 11690.2745    0  209          - 11690.2745      -     -    0s
     0     0 11777.5000    0  196          - 11777.5000      -     -    0s
     0     0 11777.5000    0  195          - 11777.5000      -     -    0s
     0     0 11829.3333    0  203          - 11829.3333      -     -    0s
     0     0 11829.3333    0  215          - 11829.3333      -     -    0s
     0     0 11850.6667    0  213          - 11850.6667      -     -    0s
     0     0 11906.2222    0  217          - 11906.2222      -     -    0s
     0     0 11955.3333    0  189          - 11955.3333      -     -    0s
     0     0 11959.2000    0  199          - 11959.2000      -     -    0s
     0     0 11959.2000    0  215          - 11959.2000      -     -    0s
     0     0 11965.0000    0  187          - 11965.0000      -     -    0s
     0     0 12043.5000    0  200          - 12043.5000      -     -    1s
     0     0 12043.5000    0  218          - 12043.5000      -     -    1s
     0     0 12096.4000    0  214          - 12096.4000      -     -    1s
     0     0 12250.0000    0  212          - 12250.0000      -     -    1s
     0     0 12250.0000    0  145          - 12250.0000      -     -    1s
     0     0 12250.0000    0  164          - 12250.0000      -     -    1s
     0     0 12250.0000    0  164          - 12250.0000      -     -    1s
H    0     0                    34622.000000 12250.0000  64.6%     -    1s
     0     0 12250.0000    0  218 34622.0000 12250.0000  64.6%     -    1s
     0     0 12250.0000    0  217 34622.0000 12250.0000  64.6%     -    1s
     0     0 12250.0000    0  219 34622.0000 12250.0000  64.6%     -    1s
     0     0 12288.6667    0  210 34622.0000 12288.6667  64.5%     -    1s
     0     0 12288.6667    0  218 34622.0000 12288.6667  64.5%     -    1s
     0     0 12313.2222    0  208 34622.0000 12313.2222  64.4%     -    1s
     0     0 12313.2222    0  224 34622.0000 12313.2222  64.4%     -    1s
     0     0 12313.2222    0  224 34622.0000 12313.2222  64.4%     -    1s
     0     0 12313.2222    0  208 34622.0000 12313.2222  64.4%     -    1s
     0     0 12313.2222    0  205 34622.0000 12313.2222  64.4%     -    1s
     0     0 12313.2222    0  210 34622.0000 12313.2222  64.4%     -    1s
     0     0 12313.2222    0  198 34622.0000 12313.2222  64.4%     -    1s
     0     0 12313.2222    0  209 34622.0000 12313.2222  64.4%     -    1s
     0     0 12313.2222    0  209 34622.0000 12313.2222  64.4%     -    1s
     0     2 12313.2222    0  197 34622.0000 12313.2222  64.4%     -    1s
H  210   204                    22622.000000 13308.0000  41.2%   226    2s
  2017   908 infeasible    9      22622.0000 16058.0000  29.0%   130    5s
* 3435   998              21    20622.000000 16869.5000  18.2%   123    6s

Cutting planes:
  Gomory: 26
  Cover: 8
  Clique: 52
  MIR: 127
  StrongCG: 1
  GUB cover: 1
  Inf proof: 3
  Zero half: 73
  RLT: 7

Explored 7208 nodes (847961 simplex iterations) in 9.85 seconds (18.95 work units)
Thread count was 10 (of 64 available processors)

Solution count 3: 20622 22622 34622 

Optimal solution found (tolerance 1.00e-04)
Best objective 2.062200000000e+04, best bound 2.062200000000e+04, gap 0.0000%

User-callback calls 15625, time in user-callback 0.00 sec
